0
Node Left Objective IInf Best_Integer Best_Bound ItCnt Gap
0 0 0.0000 6 0.0000 77
0 0 0.0000 5 Cuts:24 90
0 0 0.0000 5 Cuts:5 97
0 0 0.0000 5 Cuts:13 111
0 2 0.0000 5 0.0000 111 0 0
CPXPARAM_MIP_Cuts_Gomory-FlowCovers-MIRCut:Gomory 0
CPXPARAM_MIP_Cuts_Gomory-FlowCovers-MIRCut:FlowCovers 2
CPXPARAM_MIP_Cuts_Gomory-FlowCovers-MIRCut:MIRCut 3
1
Node Left Objective IInf Best_Integer Best_Bound ItCnt Gap
0 0 0.0000 4 0.0000 57
0 0 0.0000 4 Fract:1 59
0 0 0.0000 4 Cuts:3 63
0 2 0.0000 4 0.0000 63 0 0
CPXPARAM_MIP_Cuts_Gomory-FlowCovers-MIRCut:Gomory 0
CPXPARAM_MIP_Cuts_Gomory-FlowCovers-MIRCut:FlowCovers 1
CPXPARAM_MIP_Cuts_Gomory-FlowCovers-MIRCut:MIRCut 1
2
Node Left Objective IInf Best_Integer Best_Bound ItCnt Gap
0 0 0.0000 6 0.0000 57
0 0 0.0000 6 Fract:4 67
0 0 0.0000 3 Cuts:6 75
0 0 0.0000 3 Cuts:14 77
0 2 0.0000 3 0.0000 77 0 0
CPXPARAM_MIP_Cuts_Gomory-FlowCovers-MIRCut:Gomory 0
CPXPARAM_MIP_Cuts_Gomory-FlowCovers-MIRCut:FlowCovers 0
CPXPARAM_MIP_Cuts_Gomory-FlowCovers-MIRCut:MIRCut 2
3
Node Left Objective IInf Best_Integer Best_Bound ItCnt Gap
0 0 0 0.0000 0.0000 19 0.00% 0
CPXPARAM_MIP_Cuts_Gomory-FlowCovers-MIRCut:Gomory 0
CPXPARAM_MIP_Cuts_Gomory-FlowCovers-MIRCut:FlowCovers 0
CPXPARAM_MIP_Cuts_Gomory-FlowCovers-MIRCut:MIRCut 0
4
Node Left Objective IInf Best_Integer Best_Bound ItCnt Gap
0 0 0.0000 7 0.0000 62
0 0 0.0000 7 Cuts:23 72
0 0 0.0000 6 Cuts:12 84
0 2 0.0000 6 0.0000 84 0 0
CPXPARAM_MIP_Cuts_Gomory-FlowCovers-MIRCut:Gomory 1
CPXPARAM_MIP_Cuts_Gomory-FlowCovers-MIRCut:FlowCovers 2
CPXPARAM_MIP_Cuts_Gomory-FlowCovers-MIRCut:MIRCut 2
5
Node Left Objective IInf Best_Integer Best_Bound ItCnt Gap
0 0 0.0000 3 0.0000 48
0 0 0.0000 2 MIRcuts:1 87
0 0 0.0000 2 MIRcuts:1 88
0 2 0.0000 3 0.0000 88 0 0
CPXPARAM_MIP_Cuts_Gomory-FlowCovers-MIRCut:Gomory 0
CPXPARAM_MIP_Cuts_Gomory-FlowCovers-MIRCut:FlowCovers 1
CPXPARAM_MIP_Cuts_Gomory-FlowCovers-MIRCut:MIRCut 0
6
Node Left Objective IInf Best_Integer Best_Bound ItCnt Gap
0 0 0.0000 5 0.0000 26
0 0 0.0000 2 MIRcuts:11 56
0 2 0.0000 3 0.0000 56 0 0
CPXPARAM_MIP_Cuts_Gomory-FlowCovers-MIRCut:Gomory 0
CPXPARAM_MIP_Cuts_Gomory-FlowCovers-MIRCut:FlowCovers 8
CPXPARAM_MIP_Cuts_Gomory-FlowCovers-MIRCut:MIRCut 0
7
Node Left Objective IInf Best_Integer Best_Bound ItCnt Gap
0 0 0 0.0000 0.0000 28 0.00% 0
CPXPARAM_MIP_Cuts_Gomory-FlowCovers-MIRCut:Gomory 0
CPXPARAM_MIP_Cuts_Gomory-FlowCovers-MIRCut:FlowCovers 0
CPXPARAM_MIP_Cuts_Gomory-FlowCovers-MIRCut:MIRCut 0
8
Node Left Objective IInf Best_Integer Best_Bound ItCnt Gap
0 0 0.0000 8 0.0000 65
0 0 0.0000 6 Cuts:18 76
0 0 0.0000 5 Cuts:10 89
0 0 0.0000 2 Cuts:7 99
0 0 0.0000 2 Cuts:2 101
0 2 0.0000 2 0.0000 101 0 0
CPXPARAM_MIP_Cuts_Gomory-FlowCovers-MIRCut:Gomory 0
CPXPARAM_MIP_Cuts_Gomory-FlowCovers-MIRCut:FlowCovers 1
CPXPARAM_MIP_Cuts_Gomory-FlowCovers-MIRCut:MIRCut 1
9
Node Left Objective IInf Best_Integer Best_Bound ItCnt Gap
0 0 0.0000 4 0.0000 55
0 0 0.0000 4 MIRcuts:3 96
0 2 0.0000 4 0.0000 96 0 0
CPXPARAM_MIP_Cuts_Gomory-FlowCovers-MIRCut:Gomory 0
CPXPARAM_MIP_Cuts_Gomory-FlowCovers-MIRCut:FlowCovers 2
CPXPARAM_MIP_Cuts_Gomory-FlowCovers-MIRCut:MIRCut 0
10
Node Left Objective IInf Best_Integer Best_Bound ItCnt Gap
0 0 0.0000 5 0.0000 71
0 0 0.0000 4 Cuts:23 76
0 0 0.0000 4 Cuts:8 81
0 0 0.0000 3 Fract:2 86
0 2 0.0000 3 0.0000 86 0 0
CPXPARAM_MIP_Cuts_Gomory-FlowCovers-MIRCut:Gomory 0
CPXPARAM_MIP_Cuts_Gomory-FlowCovers-MIRCut:FlowCovers 0
CPXPARAM_MIP_Cuts_Gomory-FlowCovers-MIRCut:MIRCut 2
11
Node Left Objective IInf Best_Integer Best_Bound ItCnt Gap
0 0 0.0000 2 0.0000 41
0 0 0.0000 2 Cuts:18 58
0 2 0.0000 2 0.0000 58 0 0
CPXPARAM_MIP_Cuts_Gomory-FlowCovers-MIRCut:Gomory 0
CPXPARAM_MIP_Cuts_Gomory-FlowCovers-MIRCut:FlowCovers 7
CPXPARAM_MIP_Cuts_Gomory-FlowCovers-MIRCut:MIRCut 1
12
Node Left Objective IInf Best_Integer Best_Bound ItCnt Gap
0 0 0.0000 4 0.0000 55
0 0 0.0000 2 Cuts:10 59
0 0 0.0000 2 Cuts:2 66
0 2 0.0000 5 0.0000 66 0 0
CPXPARAM_MIP_Cuts_Gomory-FlowCovers-MIRCut:Gomory 0
CPXPARAM_MIP_Cuts_Gomory-FlowCovers-MIRCut:FlowCovers 6
CPXPARAM_MIP_Cuts_Gomory-FlowCovers-MIRCut:MIRCut 2
13
Node Left Objective IInf Best_Integer Best_Bound ItCnt Gap
0 0 0.0000 6 0.0000 57
0 0 0.0000 8 Cuts:13 87
0 2 0.0000 9 0.0000 87 0 0
CPXPARAM_MIP_Cuts_Gomory-FlowCovers-MIRCut:Gomory 0
CPXPARAM_MIP_Cuts_Gomory-FlowCovers-MIRCut:FlowCovers 5
CPXPARAM_MIP_Cuts_Gomory-FlowCovers-MIRCut:MIRCut 0
14
Node Left Objective IInf Best_Integer Best_Bound ItCnt Gap
0 0 0.0000 2 0.0000 30
0 0 0.0000 2 Cuts:25 74
0 2 0.0000 2 0.0000 74 0 0
CPXPARAM_MIP_Cuts_Gomory-FlowCovers-MIRCut:Gomory 0
CPXPARAM_MIP_Cuts_Gomory-FlowCovers-MIRCut:FlowCovers 1
CPXPARAM_MIP_Cuts_Gomory-FlowCovers-MIRCut:MIRCut 2
15
Node Left Objective IInf Best_Integer Best_Bound ItCnt Gap
0 0 0.0000 1 0.0000 35
0 0 0.0000 2 MIRcuts:6 77
0 2 0.0000 2 0.0000 77 0 0
CPXPARAM_MIP_Cuts_Gomory-FlowCovers-MIRCut:Gomory 0
CPXPARAM_MIP_Cuts_Gomory-FlowCovers-MIRCut:FlowCovers 2
CPXPARAM_MIP_Cuts_Gomory-FlowCovers-MIRCut:MIRCut 0
16
Node Left Objective IInf Best_Integer Best_Bound ItCnt Gap
0 0 0.0000 5 0.0000 63
0 0 0.0000 4 Cuts:17 68
0 0 0.0000 4 Cuts:4 73
0 0 0.0000 3 Fract:2 81
0 2 0.0000 3 0.0000 81 0 0
CPXPARAM_MIP_Cuts_Gomory-FlowCovers-MIRCut:Gomory 0
CPXPARAM_MIP_Cuts_Gomory-FlowCovers-MIRCut:FlowCovers 0
CPXPARAM_MIP_Cuts_Gomory-FlowCovers-MIRCut:MIRCut 2
17
Node Left Objective IInf Best_Integer Best_Bound ItCnt Gap
0 0 0.0000 4 0.0000 48
0 2 0.0000 4 0.0000 48 0 0
CPXPARAM_MIP_Cuts_Gomory-FlowCovers-MIRCut:Gomory 0
CPXPARAM_MIP_Cuts_Gomory-FlowCovers-MIRCut:FlowCovers 0
CPXPARAM_MIP_Cuts_Gomory-FlowCovers-MIRCut:MIRCut 0
18
Node Left Objective IInf Best_Integer Best_Bound ItCnt Gap
0 0 0.0000 4 0.0000 28
0 2 0.0000 4 0.0000 51 0 0
CPXPARAM_MIP_Cuts_Gomory-FlowCovers-MIRCut:Gomory 0
CPXPARAM_MIP_Cuts_Gomory-FlowCovers-MIRCut:FlowCovers 0
CPXPARAM_MIP_Cuts_Gomory-FlowCovers-MIRCut:MIRCut 0
19
Node Left Objective IInf Best_Integer Best_Bound ItCnt Gap
0 0 0 0.0000 0.0000 40 0.00% 0
CPXPARAM_MIP_Cuts_Gomory-FlowCovers-MIRCut:Gomory 0
CPXPARAM_MIP_Cuts_Gomory-FlowCovers-MIRCut:FlowCovers 0
CPXPARAM_MIP_Cuts_Gomory-FlowCovers-MIRCut:MIRCut 0
20
Node Left Objective IInf Best_Integer Best_Bound ItCnt Gap
0 0 0.0000 6 0.0000 54
0 0 0.0000 8 MIRcuts:17 123
0 0 0.0000 6 Cuts:22 135
0 0 0.0000 4 Cuts:16 144
0 2 0.0000 4 0.0000 144 0 0
CPXPARAM_MIP_Cuts_Gomory-FlowCovers-MIRCut:Gomory 0
CPXPARAM_MIP_Cuts_Gomory-FlowCovers-MIRCut:FlowCovers 0
CPXPARAM_MIP_Cuts_Gomory-FlowCovers-MIRCut:MIRCut 2
21
Node Left Objective IInf Best_Integer Best_Bound ItCnt Gap
0 0 0.0000 3 0.0000 52
0 2 0.0000 4 0.0000 90 0 0
CPXPARAM_MIP_Cuts_Gomory-FlowCovers-MIRCut:Gomory 0
CPXPARAM_MIP_Cuts_Gomory-FlowCovers-MIRCut:FlowCovers 0
CPXPARAM_MIP_Cuts_Gomory-FlowCovers-MIRCut:MIRCut 0
22
Node Left Objective IInf Best_Integer Best_Bound ItCnt Gap
0 0 0.0000 3 0.0000 18
0 2 0.0000 2 0.0000 44 0 0
CPXPARAM_MIP_Cuts_Gomory-FlowCovers-MIRCut:Gomory 0
CPXPARAM_MIP_Cuts_Gomory-FlowCovers-MIRCut:FlowCovers 0
CPXPARAM_MIP_Cuts_Gomory-FlowCovers-MIRCut:MIRCut 0
23
Node Left Objective IInf Best_Integer Best_Bound ItCnt Gap
0 0 0.0000 4 0.0000 23
0 0 0.0000 4 MIRcuts:31 49
0 0 0.0000 5 Cuts:11 59
0 2 0.0000 6 0.0000 59 0 0
CPXPARAM_MIP_Cuts_Gomory-FlowCovers-MIRCut:Gomory 0
CPXPARAM_MIP_Cuts_Gomory-FlowCovers-MIRCut:FlowCovers 4
CPXPARAM_MIP_Cuts_Gomory-FlowCovers-MIRCut:MIRCut 1
24
Node Left Objective IInf Best_Integer Best_Bound ItCnt Gap
0 0 0.0000 3 0.0000 53
0 0 0.0000 3 Cuts:22 65
0 0 0.0000 3 Cuts:17 75
0 2 0.0000 3 0.0000 75 0 0
CPXPARAM_MIP_Cuts_Gomory-FlowCovers-MIRCut:Gomory 0
CPXPARAM_MIP_Cuts_Gomory-FlowCovers-MIRCut:FlowCovers 1
CPXPARAM_MIP_Cuts_Gomory-FlowCovers-MIRCut:MIRCut 1
25
Node Left Objective IInf Best_Integer Best_Bound ItCnt Gap
0 0 0.0000 6 0.0000 52
0 0 0.0000 7 Fract:2 56
0 0 0.0000 4 Cuts:19 68
0 0 0.0000 4 Cuts:10 74
0 2 0.0000 4 0.0000 74 0 0
CPXPARAM_MIP_Cuts_Gomory-FlowCovers-MIRCut:Gomory 0
CPXPARAM_MIP_Cuts_Gomory-FlowCovers-MIRCut:FlowCovers 5
CPXPARAM_MIP_Cuts_Gomory-FlowCovers-MIRCut:MIRCut 3
26
Node Left Objective IInf Best_Integer Best_Bound ItCnt Gap
0 0 0 0.0000 0.0000 14 0.00% 0
CPXPARAM_MIP_Cuts_Gomory-FlowCovers-MIRCut:Gomory 0
CPXPARAM_MIP_Cuts_Gomory-FlowCovers-MIRCut:FlowCovers 0
CPXPARAM_MIP_Cuts_Gomory-FlowCovers-MIRCut:MIRCut 0
27
Node Left Objective IInf Best_Integer Best_Bound ItCnt Gap
0 0 0 0.0000 0.0000 19 0.00% 0
CPXPARAM_MIP_Cuts_Gomory-FlowCovers-MIRCut:Gomory 0
CPXPARAM_MIP_Cuts_Gomory-FlowCovers-MIRCut:FlowCovers 0
CPXPARAM_MIP_Cuts_Gomory-FlowCovers-MIRCut:MIRCut 0
28
Node Left Objective IInf Best_Integer Best_Bound ItCnt Gap
0 0 0.0000 6 0.0000 62
0 0 0.0000 6 Cuts:16 75
0 0 0.0000 7 Cuts:15 86
0 2 0.0000 7 0.0000 86 0 0
CPXPARAM_MIP_Cuts_Gomory-FlowCovers-MIRCut:Gomory 0
CPXPARAM_MIP_Cuts_Gomory-FlowCovers-MIRCut:FlowCovers 3
CPXPARAM_MIP_Cuts_Gomory-FlowCovers-MIRCut:MIRCut 1
29
Node Left Objective IInf Best_Integer Best_Bound ItCnt Gap
0 0 0.0000 4 0.0000 48
0 2 0.0000 4 0.0000 99 0 0
CPXPARAM_MIP_Cuts_Gomory-FlowCovers-MIRCut:Gomory 0
CPXPARAM_MIP_Cuts_Gomory-FlowCovers-MIRCut:FlowCovers 0
CPXPARAM_MIP_Cuts_Gomory-FlowCovers-MIRCut:MIRCut 0
30
Node Left Objective IInf Best_Integer Best_Bound ItCnt Gap
0 0 0 0.0000 0.0000 20 0.00% 0
CPXPARAM_MIP_Cuts_Gomory-FlowCovers-MIRCut:Gomory 0
CPXPARAM_MIP_Cuts_Gomory-FlowCovers-MIRCut:FlowCovers 0
CPXPARAM_MIP_Cuts_Gomory-FlowCovers-MIRCut:MIRCut 0
31
Node Left Objective IInf Best_Integer Best_Bound ItCnt Gap
0 0 0 0.0000 0.0000 27 0.00% 0
CPXPARAM_MIP_Cuts_Gomory-FlowCovers-MIRCut:Gomory 0
CPXPARAM_MIP_Cuts_Gomory-FlowCovers-MIRCut:FlowCovers 0
CPXPARAM_MIP_Cuts_Gomory-FlowCovers-MIRCut:MIRCut 0
32
Node Left Objective IInf Best_Integer Best_Bound ItCnt Gap
0 0 0.0000 9 0.0000 59
0 0 0.0000 9 Cuts:22 70
0 0 0.0000 9 MIRcuts:10 74
0 2 0.0000 9 0.0000 74 0 0
CPXPARAM_MIP_Cuts_Gomory-FlowCovers-MIRCut:Gomory 0
CPXPARAM_MIP_Cuts_Gomory-FlowCovers-MIRCut:FlowCovers 5
CPXPARAM_MIP_Cuts_Gomory-FlowCovers-MIRCut:MIRCut 2
33
Node Left Objective IInf Best_Integer Best_Bound ItCnt Gap
0 0 0.0000 7 0.0000 61
0 0 0.0000 7 Fract:2 64
0 0 0.0000 7 MIRcuts:10 69
0 2 0.0000 7 0.0000 69 0 0
CPXPARAM_MIP_Cuts_Gomory-FlowCovers-MIRCut:Gomory 0
CPXPARAM_MIP_Cuts_Gomory-FlowCovers-MIRCut:FlowCovers 4
CPXPARAM_MIP_Cuts_Gomory-FlowCovers-MIRCut:MIRCut 1
34
Node Left Objective IInf Best_Integer Best_Bound ItCnt Gap
0 0 0.0000 3 0.0000 40
0 0 0.0000 3 MIRcuts:2 73
0 2 0.0000 3 0.0000 73 0 0
CPXPARAM_MIP_Cuts_Gomory-FlowCovers-MIRCut:Gomory 0
CPXPARAM_MIP_Cuts_Gomory-FlowCovers-MIRCut:FlowCovers 1
CPXPARAM_MIP_Cuts_Gomory-FlowCovers-MIRCut:MIRCut 0
35
Node Left Objective IInf Best_Integer Best_Bound ItCnt Gap
0 0 0 0.0000 0.0000 28 0.00% 0
CPXPARAM_MIP_Cuts_Gomory-FlowCovers-MIRCut:Gomory 0
CPXPARAM_MIP_Cuts_Gomory-FlowCovers-MIRCut:FlowCovers 0
CPXPARAM_MIP_Cuts_Gomory-FlowCovers-MIRCut:MIRCut 0
36
Node Left Objective IInf Best_Integer Best_Bound ItCnt Gap
0 0 0.0000 8 0.0000 61
0 0 0.0000 9 Cuts:36 76
0 0 0.0000 8 Cuts:10 84
0 2 0.0000 8 0.0000 84 0 0
CPXPARAM_MIP_Cuts_Gomory-FlowCovers-MIRCut:Gomory 0
CPXPARAM_MIP_Cuts_Gomory-FlowCovers-MIRCut:FlowCovers 5
CPXPARAM_MIP_Cuts_Gomory-FlowCovers-MIRCut:MIRCut 3
37
Node Left Objective IInf Best_Integer Best_Bound ItCnt Gap
0 0 0.0000 5 0.0000 63
0 2 0.0000 6 0.0000 63 0 0
CPXPARAM_MIP_Cuts_Gomory-FlowCovers-MIRCut:Gomory 0
CPXPARAM_MIP_Cuts_Gomory-FlowCovers-MIRCut:FlowCovers 0
CPXPARAM_MIP_Cuts_Gomory-FlowCovers-MIRCut:MIRCut 0
38
Node Left Objective IInf Best_Integer Best_Bound ItCnt Gap
0 0 0.0000 3 0.0000 39
0 0 0.0000 2 MIRcuts:3 57
0 0 0.0000 2 Fract:1 59
0 2 0.0000 2 0.0000 59 0 0
CPXPARAM_MIP_Cuts_Gomory-FlowCovers-MIRCut:Gomory 0
CPXPARAM_MIP_Cuts_Gomory-FlowCovers-MIRCut:FlowCovers 0
CPXPARAM_MIP_Cuts_Gomory-FlowCovers-MIRCut:MIRCut 1
39
Node Left Objective IInf Best_Integer Best_Bound ItCnt Gap
0 0 0 0.0000 0.0000 28 0.00% 0
CPXPARAM_MIP_Cuts_Gomory-FlowCovers-MIRCut:Gomory 0
CPXPARAM_MIP_Cuts_Gomory-FlowCovers-MIRCut:FlowCovers 0
CPXPARAM_MIP_Cuts_Gomory-FlowCovers-MIRCut:MIRCut 0
